fftgw 00

#8 steps performed, 1-SCF 2-NSCF 5:10-PBE0 steps

ndtset 8 
jdtset 1 2 5 6 7 8 9 10

acell    3*15.601578681600001  

rprim    1.000000000000000   0.000000000000000   0.000000000000000 
         0.000000000000000   0.724685077519380   0.000000000000000 
        -0.568236485916268   0.000000000000000   0.884134626834398 
       
natom    36  
ntypat   2  
typat    1 1 1 1 1 1 1 1 1 1 1 1 1 1 1 1 1 1 1 1 2 2 2 2 2 2 2 2 2 2 2 2 2 2 2 2  
znucl    6 1  
xred     0.086000000000000   0.017400000000000   0.326800000000000 
         0.414000000000000   0.517400000000000   0.673200000000000 
         0.586000000000000   0.482600000000000   0.326800000000000 
         0.914000000000000   0.982600000000000   0.673200000000000 
         0.115000000000000   0.159300000000000   0.219400000000000 
         0.385000000000000   0.659300000000000   0.780600000000000 
         0.615000000000000   0.340700000000000   0.219400000000000 
         0.885000000000000   0.840700000000000   0.780600000000000 
         0.048600000000000   0.103000000000000   0.036200000000000 
         0.451400000000000   0.603000000000000   0.963800000000000 
         0.548600000000000   0.397000000000000   0.036200000000000 
         0.951400000000000   0.897000000000000   0.963800000000000 
         0.075700000000000   0.247100000000000   0.922300000000000 
         0.424300000000000   0.747100000000000   0.077700000000000 
         0.575700000000000   0.252900000000000   0.922300000000000 
         0.924300000000000   0.752900000000000   0.077700000000000 
         0.010600000000000   0.187700000000000   0.745600000000000 
         0.489400000000000   0.687700000000000   0.254400000000000 
         0.510600000000000   0.312300000000000   0.745600000000000 
         0.989400000000000   0.812300000000000   0.254400000000000 
         0.137200000000000   0.063200000000000   0.465100000000000 
         0.362800000000000   0.563200000000000   0.534900000000000 
         0.637200000000000   0.436800000000000   0.465100000000000 
         0.862800000000000   0.936800000000000   0.534900000000000 
         0.189100000000000   0.317400000000000   0.272600000000000 
         0.310900000000000   0.817400000000000   0.727400000000000 
         0.689100000000000   0.182600000000000   0.272600000000000 
         0.810900000000000   0.682600000000000   0.727400000000000 
         0.148600000000000   0.403100000000000   0.976800000000000 
         0.351400000000000   0.903100000000000   0.023200000000000 
         0.648600000000000   0.096900000000000   0.976800000000000 
         0.851400000000000   0.596900000000000   0.023200000000000 
         0.033900000000000   0.298600000000000   0.661300000000000 
         0.466100000000000   0.798600000000000   0.338700000000000 
         0.533900000000000   0.201400000000000   0.661300000000000 
         0.966100000000000   0.701400000000000   0.338700000000000 

ecut    42
ngkpt   4 4 4
nshiftk 1
shiftk 0. 0. 0.
istwfk *1
icutcoul 7

#Parameters for the SCF calculation
iscf1 7
occopt1 1
diemac1 9
diemix1 0.8
toldfe1 1.0d-9 
nband1 60

#Parameters for the NSCF calculation
iscf2 -2
getden2 1
nband2 412  
tolwfr2 1.0d-18
nbdbuf2 8
nstep2 400
getwfk2 0
getwfk1 0

#Common parameters
getwfk 2
autoparal 1
chkprim 0
symchi  1
gwpara 2
gwgamma -4
gwmem 01
gwcalctyp  225
ixc_sigma -406
hyb_mixing 0.37
ecutwfn 10
ecutsigx 10
ecuteps 5 
nband 400
awtr 1
rhoqpmix 0.2

nkptgw 30
kptgw
 0.00000000E+00  0.00000000E+00  0.00000000E+00
 2.50000000E-01  0.00000000E+00  0.00000000E+00
 5.00000000E-01  0.00000000E+00  0.00000000E+00
 0.00000000E+00  2.50000000E-01  0.00000000E+00
 2.50000000E-01  2.50000000E-01  0.00000000E+00
 5.00000000E-01  2.50000000E-01  0.00000000E+00
 0.00000000E+00  5.00000000E-01  0.00000000E+00
 2.50000000E-01  5.00000000E-01  0.00000000E+00
 5.00000000E-01  5.00000000E-01  0.00000000E+00
 0.00000000E+00  0.00000000E+00  2.50000000E-01
 2.50000000E-01  0.00000000E+00  2.50000000E-01
 5.00000000E-01  0.00000000E+00  2.50000000E-01
-2.50000000E-01  0.00000000E+00  2.50000000E-01
 0.00000000E+00  2.50000000E-01  2.50000000E-01
 2.50000000E-01  2.50000000E-01  2.50000000E-01
 5.00000000E-01  2.50000000E-01  2.50000000E-01
-2.50000000E-01  2.50000000E-01  2.50000000E-01
 0.00000000E+00  5.00000000E-01  2.50000000E-01
 2.50000000E-01  5.00000000E-01  2.50000000E-01
 5.00000000E-01  5.00000000E-01  2.50000000E-01
-2.50000000E-01  5.00000000E-01  2.50000000E-01
 0.00000000E+00  0.00000000E+00  5.00000000E-01
 2.50000000E-01  0.00000000E+00  5.00000000E-01
 5.00000000E-01  0.00000000E+00  5.00000000E-01
 0.00000000E+00  2.50000000E-01  5.00000000E-01
 2.50000000E-01  2.50000000E-01  5.00000000E-01
 5.00000000E-01  2.50000000E-01  5.00000000E-01
 0.00000000E+00  5.00000000E-01  5.00000000E-01
 2.50000000E-01  5.00000000E-01  5.00000000E-01
 5.00000000E-01  5.00000000E-01  5.00000000E-01

bdgw
1 80
1 80
1 80
1 80
1 80
1 80
1 80
1 80
1 80
1 80
1 80
1 80
1 80
1 80
1 80
1 80
1 80
1 80
1 80
1 80
1 80
1 80
1 80
1 80
1 80
1 80
1 80
1 80
1 80
1 80

optdriver5 4
optdriver6 4
getqps6 -1
optdriver7 4
getqps7 -1
optdriver8 4
getqps8 -1
optdriver9 4
getqps9 -1
optdriver10 4
getqps10 -1

