&GLOBAL
  PROJECT el
  RUN_TYPE MD
  PRINT_LEVEL LOW
 EXTENDED_FFT_LENGTHS
&END GLOBAL
&FORCE_EVAL
  METHOD Quickstep
  STRESS_TENSOR  ANALYTICAL
  &PRINT
    &STRESS_TENSOR
    &END STRESS_TENSOR
  &END PRINT
  &DFT
            BASIS_SET_FILE_NAME /usr/local/cp2k-6.1/data/BASIS_MOLOPT
            POTENTIAL_FILE_NAME /usr/local/cp2k-6.1/data/GTH_POTENTIALS
            BASIS_SET_FILE_NAME /usr/local/cp2k-6.1/data/BASIS_ADMM_MOLOPT
            BASIS_SET_FILE_NAME /usr/local/cp2k-6.1/data/BASIS_ADMM
            WFN_RESTART_FILE_NAME /home/fambrosi/nap/md/el-RESTART.wfn
    &MGRID
      CUTOFF 300
    &END MGRID
    &QS
      METHOD GPW
    &END QS
    &SCF
      SCF_GUESS  RESTART
      MAX_SCF    100
      &OT
        MINIMIZER       CG
        PRECONDITIONER  FULL_SINGLE_INVERSE
      &END
    &END SCF
    &PRINT
       &MO_CUBES
        NHOMO 1
        NLUMO 200
       WRITE_CUBE F
        &EACH
         MD 50
        &END
       &END MO_CUBES
    &END PRINT
    &XC
      &XC_FUNCTIONAL
          &LIBXC
           FUNCTIONAL GGA_X_RPW86
         &END LIBXC
         &LIBXC
           FUNCTIONAL GGA_C_PBE
         &END LIBXC
    &END XC_FUNCTIONAL
      &vdW_POTENTIAL
         DISPERSION_FUNCTIONAL NON_LOCAL
         &NON_LOCAL
           TYPE RVV10
           PARAMETERS  6.3  0.0093
           KERNEL_FILE_NAME  /usr/local/cp2k-6.1/data/rVV10_kernel_table.dat
           CUTOFF      400
         &END NON_LOCAL
      &END vdW_POTENTIAL
    &END XC
  &END DFT
  &SUBSYS
    &CELL
A 16.51200   0.00000   0.00000
B  0.00000  17.94900   0.00000
C -9.38272   0.00000  14.59883
  &END CELL
    &COORD
  C        -0.8574920394        0.0975810702        2.3658311151
  C        -0.0968912613        0.9444469224        1.6033555480
  C         0.2320069064        0.6143028402        0.2690972907
  C        -3.6774373356        1.4700235397        6.7591255958
  C        -3.3683182135        1.1208098227        5.4704621493
  H        -1.1003656705        0.3680641306        3.3858923088
  H         0.2611339350        1.8834933354        2.0061905234
  H        -3.3226507212        2.4048525179        7.1758984910
  H        -2.7594467939        1.7831391969        4.8664770689
  C         0.2974609797        3.0878537805        4.9345073195
  C         4.4275899348        5.8858920459        4.9357333029
  C         3.2683980293        2.8926297826        2.3646850608
  C        -0.4636138887        3.9350092496        5.6962068394
  C         3.6650119218        5.0391056869        5.6963113913
  C         4.0317693223        2.0468805252        1.6037971561
  C        -0.7937091307        3.6050835486        7.0302209642
  C         3.3332410161        5.3691313898        7.0298547238
  C         4.3620548381        2.3769833571        0.2698977657
  C         3.1133295991        4.4597830174        0.5388081689
  C         7.2391607277        4.5145546679        0.5374568643
  C         0.4534398174        1.5212528570        6.7608275552
  C         2.8017999703        4.1101361460        1.8267739240
  C         6.9265840758        4.8640653296        1.8251891318
  C         0.7631549714        1.8698489243        5.4721631423
  H         0.5404083261        3.3576156365        3.9142843765
  H         4.6716735642        5.6160469150        3.9158099381
  H         3.0245280751        2.6223163621        3.3845341113
  H        -0.8217838375        4.8737268989        5.2926791000
  H         3.3069013828        4.1006360313        5.2921630472
  H         4.3907376693        1.1085528685        2.0074825834
  H         2.7578887255        5.3939835240        0.1211633907
  H         6.8844023351        3.5802692673        0.1194797431
  H         0.8082487001        0.5867719035        7.1782758801
  H         2.1903163273        4.7714831774        2.4292033053
  H         6.3145246093        4.2026655631        2.4269910361
  H         1.3721038460        1.2071032179        4.8686811506
  C        -5.5488887149        0.0976310602        9.6652492483
  C        -4.7882639806        0.9445461458        8.9026953544
  C        -4.4593296202        0.6144494978        7.5683710568
  C        -8.3687804123        1.4699083766       14.0587457386
  C        -8.0596921452        1.1208049207       12.7699809186
  H        -5.7917930568        0.3681717790       10.6854395235
  H        -4.4302511370        1.8836718843        9.3056863098
  H        -8.0139243107        2.4047849915       14.4753985305
  H        -7.4506822046        1.7830788124       12.1658419739
  C        -4.3938712668        3.0878687231       12.2339225814
  C        -0.2636479299        5.8858397981       12.2351675494
  C        -1.4229651304        2.8926095782        9.6641173426
  C        -5.1548720313        3.9351273341       12.9957297994
  C        -1.0264461578        5.0391112262       12.9957560668
  C        -0.6596187449        2.0467965891        8.9031194575
  C        -5.4853162910        3.6050685613       14.3296960659
  C        -1.3580390409        5.3689737896       14.3294445264
  C        -0.3293313255        2.3768533798        7.5691463957
  C        -1.5781177440        4.4596648977        7.8380116107
  C         2.5478672285        4.5145818733        7.8367000202
  C        -4.2378896493        1.5213491849       14.0604439741
  C        -1.8895409344        4.1101520130        9.1261011033
  C         2.2351917705        4.8640485035        9.1244865896
  C        -3.9282109428        1.8698177221       12.7716722305
  H        -4.1508771560        3.3576745208       11.2135715913
  H        -0.0196125401        5.6159809146       11.2150847285
  H        -1.6669000318        2.6222371507       10.6840865340
  H        -5.5131027602        4.8738820211       12.5920073872
  H        -1.3843955465        4.1004818725       12.5915092911
  H        -0.3006462457        1.1084044212        9.3069816519
  H        -1.9335569615        5.3939435506        7.4205008951
  H         2.1929202797        3.5803112209        7.4188020226
  H        -3.8830289496        0.5868166893       14.4777783485
  H        -2.5011365588        4.7714686340        9.7286856813
  H         1.6230287264        4.2026839992        9.7264551255
  H        -3.3191213854        1.2071247202       12.1680438650
  C        -0.8574174841        6.0810846133        2.3658499511
  C        -0.0959971049        6.9274160005        1.6036520266
  C         0.2329366091        6.5971769099        0.2694217274
  C        -3.6769331538        7.4531834081        6.7593780307
  C        -3.3682952863        7.1044129686        5.4704931757
  H        -1.1003179524        6.3513516310        3.3859493732
  H         0.2630281819        7.8659758978        2.0067656101
  H        -3.3216692843        8.3876935630        7.1764292406
  H        -2.7599377196        7.7671156354        4.8663882483
  C         0.2977592540        9.0716778118        4.9346514877
  C         4.4277754067       11.8675384512        4.9357815647
  C         3.2683813995        8.8760874245        2.3646415409
  C        -0.4635706374        9.9185865000        5.6963447327
  C         3.6639569601       11.0216074221        5.6959956173
  C         4.0306668489        8.0296894231        1.6033528741
  C        -0.7940038946        9.5883441648        7.0301864131
  C         3.3321348593       11.3518192376        7.0294724300
  C         4.3612007530        8.3599071366        0.2695467056
  C         3.1139962586       10.4437000100        0.5390963560
  C         7.2394048446       10.4963160649        0.5374413918
  C         0.4528844222        7.5043845827        6.7604874230
  C         2.8026632381       10.0941194245        1.8271267497
  C         6.9274136445       10.8453415212        1.8254371912
  C         0.7631248932        7.8534642761        5.4720683604
  H         0.5411799527        9.3419583752        3.9146709588
  H         4.6723687749       11.5974223873        3.9160537998
  H         3.0244401851        8.6054877062        3.3844103162
  H        -0.8215625989       10.8574096986        5.2929450622
  H         3.3051561566       10.0834593950        5.2917162186
  H         4.3888332627        7.0909734463        2.0068156127
  H         2.7591525120       11.3782091151        0.1216311037
  H         6.8846534564        9.5620987777        0.1193271185
  H         0.8072722970        6.5696177270        7.1776890336
  H         2.1922141859       10.7559851894        2.4300195854
  H         6.3169478323       10.1830267818        2.4278500243
  H         1.3726877915        7.1911497902        4.8687474834
  C        -5.5487984072        6.0811107785        9.6652753771
  C        -4.7873786310        6.9274971408        8.9029802891
  C        -4.4583739878        6.5972921853        7.5686931859
  C        -8.3683094846        7.4530945553       14.0589865733
  C        -8.0596541129        7.1044217973       12.7700141412
  H        -5.7917489679        6.3514358578       10.6855018365
  H        -4.4283708004        7.8661366037        9.3062577777
  H        -8.0129459820        8.3876399204       14.4759190472
  H        -7.4512066956        7.7670938384       12.1657322738
  C        -4.3935528489        9.0717119790       12.2340612442
  C        -0.2635630878       11.8675436110       12.2351749493
  C        -1.4230051287        8.8760459641        9.6640723288
  C        -5.1549232993        9.9186618908       12.9958231113
  C        -1.0272635595       11.0214970979       12.9955267193
  C        -0.6606860805        8.0296131671        8.9027003979
  C        -5.4854384888        9.5884603944       14.3297205785
  C        -1.3593937543       11.3517823660       14.3289778976
  C        -0.3301416702        8.3597576856        7.5688137604
  C        -1.5773228953       10.4436225583        7.8383309840
  C         2.5479335151       10.4964381500        7.8366127841
  C        -4.2385021128        7.5044710697       14.0601019501
  C        -1.8887070107       10.0941016378        9.1264301546
  C         2.2360781361       10.8452954302        9.1247487493
  C        -3.9281839545        7.8534864079       12.7716185943
  H        -4.1500947940        9.3420465163       11.2139527758
  H        -0.0189089411       11.5973524616       11.2153302030
  H        -1.6669713863        8.6053884226       10.6839698964
  H        -5.5128897728       10.8575728931       12.5922744890
  H        -1.3861456021       10.0833179990       12.5910610710
  H        -0.3025671426        7.0907942662        9.3062962913
  H        -1.9322953807       11.3781526563        7.4209759773
  H         2.1931969006        9.5621232272        7.4186629405
  H        -3.8839631738        6.5696977990       14.4772053848
  H        -2.4992268493       10.7559418816        9.7295084981
  H         1.6254770679       10.1830382102        9.7273241095
  H        -3.3185335942        7.1912024148       12.1681236242
  C        -0.8573133207       12.0628430858        2.3659635334
  C        -0.0967862763       12.9098590053        1.6035459359
  C         0.2318697416       12.5799628048        0.2691528514
  C        -3.6766759871       13.4350440038        6.7594304849
  C        -3.3673916574       13.0857292763        5.4708290200
  H        -1.0995990014       12.3327750335        3.3862991119
  H         0.2613436459       13.8488406313        2.0064732798
  H        -3.3213620621       14.3696062741        7.1763512238
  H        -2.7575388021       13.7475678105        4.8672856788
  C         0.2975888659       15.0551388323        4.9345758913
  C         4.4279043219       17.8509724184        4.9358675079
  C         3.2685358315       14.8598877655        2.3647440822
  C        -0.4642732520       15.9016748891        5.6960858470
  C         3.6649468701       17.0045211592        5.6964120520
  C         4.0308744037       14.0133958302        1.6035661060
  C        -0.7950139181       15.5712526625        7.0298179298
  C         3.3329533586       17.3347973376        7.0298262942
  C         4.3608542383       14.3432130115        0.2695148700
  C         3.1136164867       16.4269931949        0.5388719985
  C         7.2399611235       16.4795173057        0.5377801254
  C         0.4537340860       13.4884634268        6.7608674986
  C         2.8026661106       16.0778262242        1.8270949975
  C         6.9273437130       16.8290947632        1.8254879304
  C         0.7639100873       13.8374983428        5.4724214051
  H         0.5411395777       15.3252578777        3.9145925266
  H         4.6724461786       17.5806063687        3.9161844119
  H         3.0251803964       14.5898778713        3.3847993785
  H        -0.8234109287       16.8399386806        5.2923552965
  H         3.3070434245       16.0659249172        5.2924186076
  H         4.3889216660       13.0746420098        2.0070822420
  H         2.7582302727       17.3611366667        0.1210758070
  H         6.8855521118       15.5450354985        0.1199339689
  H         0.8084284702       12.5538405298        7.1781156874
  H         2.1927738179       16.7401054450        2.4301104958
  H         6.3163092710       16.1672114677        2.4277795708
  H         1.3744856426       13.1756970686        4.8695450050
  C        -5.5487241679       12.0628883792        9.6653783760
  C        -4.7881268490       12.9099174711        8.9028885755
  C        -4.4594203074       12.5800711997        7.5684305224
  C        -8.3680676562       13.4349646635       14.0590384922
  C        -8.0587395866       13.0857355654       12.7703597465
  H        -5.7910169135       12.3328549574       10.6858548634
  H        -4.4300611606       13.8490029957        9.3059600062
  H        -8.0126351898       14.3695503824       14.4758510717
  H        -7.4487910937       13.7475417669       12.1666449789
  C        -4.3936885821       15.0551762977       12.2339978231
  C        -0.2634719339       17.8509628028       12.2352679386
  C        -1.4228776278       14.8598475613        9.6641618449
  C        -5.1556628258       15.9017077989       12.9955573460
  C        -1.0262964011       17.0043793609       12.9959444472
  C        -0.6604344294       14.0133533758        8.9029316795
  C        -5.4864345674       15.5713521165       14.3293612963
  C        -1.3585246142       17.3347414833       14.3293473009
  C        -0.3305248448       14.3430726350        7.5687767708
  C        -1.5776825880       16.4269424456        7.8381217839
  C         2.5484993931       16.4796540223        7.8369795935
  C        -4.2376646880       13.4885139173       14.0604697166
  C        -1.8886952076       16.0778355427        9.1264119923
  C         2.2359804202       16.8290882799        9.1248138923
  C        -3.9274054251       13.8374993839       12.7719638477
  H        -4.1501288371       15.3253250618       11.2138742509
  H        -0.0188342387       17.5805272610       11.2154726418
  H        -1.6662296293       14.5897956165       10.6843561156
  H        -5.5147210993       16.8400831951       12.5916907169
  H        -1.3842942650       16.0657679279       12.5917373983
  H        -0.3024812503       13.0744718577        9.3065599912
  H        -1.9332081308       17.3611030507        7.4204313233
  H         2.1940859305       15.5451002756        7.4192566583
  H        -3.8828117782       12.5538921439       14.4776361286
  H        -2.4986647710       16.7400858352        9.7296121344
  H         1.6248228693       16.1672370220        9.7272494639
  H        -3.3167248794       13.1757305282       12.1689272788
  C         7.3926939692        0.0980197577        2.3635647496
  C         8.1557180245        0.9444355323        1.6030450513
  C         8.4876401608        0.6142702944        0.2695869052
  C         4.5807159908        1.4694621520        6.7616113850
  C         4.8932849634        1.1199105426        5.4738858826
  H         7.1481920130        0.3684116926        3.3832505435
  H         8.5136049258        1.8830597131        2.0069869348
  H         4.9350600877        2.4039578033        7.1794822666
  H         5.5043332650        1.7818165559        4.8716305242
  C         8.5520916399        3.0891005582        4.9346569902
  C        12.6779627497        5.8861674390        4.9334319966
  C        11.5229772942        2.8938224550        2.3648096267
  C         7.7897677787        3.9355989403        5.6958415127
  C        11.9174003419        5.0391782346        5.6958454052
  C        12.2850503983        2.0473996549        1.6033763000
  C         7.4597997807        3.6058084394        7.0299006071
  C        11.5888444161        5.3689649603        7.0302873693
  C        12.6155767836        2.3777100978        0.2695674466
  C        11.3670322926        4.4606068849        0.5385947638
  C        15.4972610106        4.5139912573        0.5399877087
  C         8.7070220414        1.5220030126        6.7605499193
  C        11.0566829339        4.1114788602        1.8269768986
  C        15.1880608431        4.8632486587        1.8286226474
  C         9.0179751823        1.8711767067        5.4723283192
  H         8.7954522961        3.3591284281        3.9146080175
  H        12.9202498542        5.6162128795        3.9131039126
  H        11.2794970542        2.6237390995        3.3848183669
  H         7.4317110670        4.8743530400        5.2923382913
  H        11.5593097306        4.1001686377        5.2929527606
  H        12.6440408046        1.1090575627        2.0070505129
  H        11.0121909160        5.3951534289        0.1212926803
  H        15.1420142004        3.5794039710        0.1230687612
  H         9.0624122025        0.5878540378        7.1783329319
  H        10.4461286878        4.7732889058        2.4298621843
  H        14.5781577520        4.2014236542        2.4321329344
  H         9.6278517058        1.2088958296        4.8692983650
  C         2.7013534258        0.0980320038        9.6629992677
  C         3.4642275066        0.9445794575        8.9023331277
  C         3.7964402887        0.6143067419        7.5689046181
  C        -0.1105281853        1.4693125284       14.0612471508
  C         0.2019288758        1.1199239060       12.7733871343
  H         2.4567527392        0.3684915812       10.6827950709
  H         3.8222162452        1.8832147749        9.3064910644
  H         0.2438104756        2.4038862387       14.4789905587
  H         0.8131062050        1.7817928808       12.1709888668
  C         3.8607265860        3.0891180169       12.2340562524
  C         7.9866223809        5.8861407488       12.2328413117
  C         6.8316000974        2.8938106440        9.6642366254
  C         3.0985102776        3.9357306320       12.9953705600
  C         7.2260605190        5.0390890325       12.9953407684
  C         7.5936148794        2.0473008182        8.9026898581
  C         2.7682890812        3.6058508180       14.3294145836
  C         6.8973863997        5.3688779410       14.3298197965
  C         7.9243185026        2.3776426067        7.5688649247
  C         6.6755629526        4.4604751384        7.8377757834
  C        10.8059016780        4.5140749522        7.8392030391
  C         4.0157127552        1.5221168249       14.0601636490
  C         6.3653355521        4.1115047209        9.1262926621
  C        10.4966880694        4.8632489535        9.1279224194
  C         4.3265645057        1.8711409332       12.7718148393
  H         4.1041427527        3.3592013059       11.2138842579
  H         8.2289404570        5.6161314370       11.2123824090
  H         6.5880546307        2.6236816626       10.6843698780
  H         2.7403980510        4.8745285404       12.5916832181
  H         6.8679799385        4.0999963532       12.5922993784
  H         7.9526488011        1.1089171761        9.3065627510
  H         6.3207203215        5.3950952145        7.4206002745
  H        10.4505636190        3.5794550038        7.4223897386
  H         4.3711042492        0.5878863062       14.4778047716
  H         5.7546424320        4.7732743853        9.7293168825
  H         9.8866986930        4.2014427645        9.7315992948
  H         4.9365616485        1.2089039422       12.1686259550
  C         7.3928662437        6.0814439380        2.3636579727
  C         8.1566192340        6.9274072125        1.6034174044
  C         8.4885062449        6.5972119316        0.2699541795
  C         4.5813196982        7.4526352137        6.7619876526
  C         4.8932304642        7.1036626145        5.4739597997
  H         7.1482772889        6.3515895504        3.3833782750
  H         8.5154970479        7.8655253230        2.0076950539
  H         4.9359559615        8.3869046277        7.1800805508
  H         5.5036845522        7.7659979098        4.8715560102
  C         8.5522635058        9.0729253906        4.9347811432
  C        12.6780411816       11.8679356359        4.9335382198
  C        11.5228786808        8.8773281248        2.3647604854
  C         7.7899653674        9.9193107040        5.6960731067
  C        11.9166660451       11.0215890915        5.6957614178
  C        12.2842625088        8.0304408539        1.6030972821
  C         7.4594057142        9.5890679374        7.0298688380
  C        11.5876795037       11.3518037869        7.0299858502
  C        12.6145670393        8.3606188674        0.2692110403
  C        11.3678401795       10.4446540401        0.5389544529
  C        15.4975082864       10.4958592316        0.5400384826
  C         8.7066582079        7.5053001142        6.7603130265
  C        11.0574550390       10.0955122402        1.8273247179
  C        15.1889698787       10.8445600766        1.8289652585
  C         9.0179608603        7.8548767248        5.4722751005
  H         8.7961938944        9.3435051786        3.9150041774
  H        12.9209620663       11.5976349996        3.9134503113
  H        11.2794571329        8.6070433535        3.3847395511
  H         7.4318125168       10.8580298646        5.2926032191
  H        11.5576227646       10.0830293211        5.2926625493
  H        12.6422046908        7.0915906863        2.0064741841
  H        11.0133470554       11.3793672933        0.1217184621
  H        15.1423251355        9.5613150906        0.1229977412
  H         9.0614754827        6.5707827894        7.1777820883
  H        10.4479525333       10.7578570380        2.4306699461
  H        14.5805579695       10.1818734088        2.4330378866
  H         9.6284319587        7.1930154782        4.8693994188
  C         2.7013802184        6.0814953060        9.6630547490
  C         3.4653268357        6.9274121251        8.9027931257
  C         3.7971600078        6.5973217731        7.5692260826
  C        -0.1100861726        7.4525944410       14.0615800283
  C         0.2018890184        7.1036847905       12.7734862752
  H         2.4568361856        6.3516546701       10.6829319045
  H         3.8240660786        7.8656793888        9.3071749610
  H         0.2447125315        8.3868624308       14.4795829012
  H         0.8124397566        7.7659877757       12.1709132702
  C         3.8609211527        9.0729507006       12.2341759105
  C         7.9867332673       11.8679005788       12.2329564726
  C         6.8314757131        8.8772902877        9.6641948479
  C         3.0986485038        9.9194158224       12.9955585824
  C         7.2252853375       11.0215266805       12.9952362494
  C         7.5928287913        8.0303407946        8.9024190812
  C         2.7680047841        9.5892093186       14.3294061961
  C         6.8962891996       11.3516805953       14.3295375251
  C         7.9233858222        8.3605389137        7.5685300434
  C         6.6764317148       10.4445420284        7.8381426492
  C        10.8061789396       10.4959273702        7.8392674711
  C         4.0153292000        7.5054313197       14.0599490827
  C         6.3660919386       10.0955009982        9.1266151879
  C        10.4976124495       10.8445570241        9.1282712915
  C         4.3265731558        7.8548661674       12.7717952323
  H         4.1048797331        9.3436079229       11.2142761981
  H         8.2296683787       11.5975505973       11.2127348698
  H         6.5880126655        8.6069477223       10.6843001636
  H         2.7404772764       10.8582084875       12.5919470365
  H         6.8663016211       10.0828597485       12.5920046333
  H         7.9508100674        7.0914355434        9.3059686180
  H         6.3218689658       11.3793048943        7.4210324553
  H        10.4508787135        9.5613626346        7.4223234914
  H         4.3701988234        6.5708457896       14.4772610960
  H         5.7564528853       10.7577871595        9.7301180378
  H         9.8890997334       10.1819008007        9.7325073828
  H         4.9371560115        7.1930611935       12.1687370835
  C         7.3929547866       12.0631470968        2.3636713427
  C         8.1557302939       12.9098203953        1.6031575043
  C         8.4873799287       12.5799066711        0.2695578196
  C         4.5813701817       13.4345047890        6.7618928747
  C         4.8941073128       13.0849130394        5.4742189491
  H         7.1489734012       12.3329610180        3.3836272229
  H         8.5137272690       13.8483593198        2.0072422810
  H         4.9362238576       14.3687257117        7.1799386594
  H         5.5061174954       13.7463588583        4.8724205740
  C         8.5521658043       15.0563271620        4.9346949418
  C        12.6781611225       17.8514245049        4.9335712953
  C        11.5231323336       14.8611162938        2.3648839305
  C         7.7889872035       15.9021766594        5.6956554550
  C        11.9175354912       17.0045712863        5.6960398118
  C        12.2842958169       14.0140070221        1.6032166617
  C         7.4585529486       15.5720072758        7.0295020076
  C        11.5886718580       17.3346444563        7.0303208086
  C        12.6143865331       14.3439456716        0.2692025331
  C        11.3672121462       16.4277558767        0.5386008545
  C        15.4981199089       16.4789553190        0.5403353358
  C         8.7074167512       13.4892701848        6.7606536762
  C        11.0575021085       16.0791616179        1.8272663752
  C        15.1889204569       16.8282076188        1.8289702629
  C         9.0188178578       13.8388567141        5.4726424682
  H         8.7961135687       15.3266923030        3.9148776242
  H        12.9209950937       17.5809232139        3.9135065874
  H        11.2802320526       14.5913846829        3.3851261902
  H         7.4298770784       16.8404322835        5.2919263698
  H        11.5595074588       16.0655135036        5.2932383263
  H        12.6424156828       13.0752640276        2.0067327327
  H        11.0123896515       17.3622262432        0.1211387687
  H        15.1432978429       15.5441601266        0.1235149563
  H         9.0627451983       12.5550069727        7.1782478846
  H        10.4485183989       16.7418897816        2.4307329736
  H        14.5800751378       16.1658450456        2.4329430063
  H         9.6303020367       13.1775128057        4.8702075526
  C         2.7015702921       12.0631404028        9.6631056532
  C         3.4642566131       12.9099188172        8.9024686215
  C         3.7961088526       12.5799835326        7.5688580490
  C        -0.1098961218       13.4343931083       14.0615419278
  C         0.2027400080       13.0849478588       12.7737413956
  H         2.4575392262       12.3330237294       10.6831811555
  H         3.8223135970       13.8485036256        9.3067237320
  H         0.2449647123       14.3686967227       14.4794394191
  H         0.8148889466       13.7463370493       12.1717884789
  C         3.8608358756       15.0563650202       12.2341044134
  C         7.9868467450       17.8513680561       12.2329863776
  C         6.8317185802       14.8610859804        9.6642895199
  C         3.0976000995       15.9022336755       12.9951432498
  C         7.2262102020       17.0044660694       12.9955416298
  C         7.5929493610       14.0139467792        8.9025662375
  C         2.7671557604       15.5721099985       14.3290644319
  C         6.8971598451       17.3345608812       14.3298390584
  C         7.9230558034       14.3438467209        7.5684832217
  C         6.6758780695       16.4276845970        7.8378327488
  C        10.8067280018       16.4790828118        7.8395368405
  C         4.0160249120       13.4893295678       14.0602322197
  C         6.3661084597       16.0791687973        9.1265705855
  C        10.4975643586       16.8282165548        9.1282757568
  C         4.3274726606       13.8388579916       12.7721512719
  H         4.1048076391       15.3267638703       11.2141504834
  H         8.2296965735       17.5808228128       11.2127865502
  H         6.5887927738       14.5913254625       10.6846681737
  H         2.7385550278       16.8405924605       12.5912652254
  H         6.8681842016       16.0653326997       12.5925836568
  H         7.9510150082       13.0751094041        9.3062379424
  H         6.3209275506       17.3621663653        7.4204575670
  H        10.4518452299       15.5442359497        7.4228406969
  H         4.3714768282       12.5550531172       14.4777396172