&GLOBAL
  PROJECT el
  RUN_TYPE GEO_OPT
  PRINT_LEVEL LOW
&END GLOBAL
&FORCE_EVAL
  METHOD Quickstep
  STRESS_TENSOR  ANALYTICAL
  &DFT
            BASIS_SET_FILE_NAME /usr/local/cp2k-6.1/data/BASIS_MOLOPT
            POTENTIAL_FILE_NAME /usr/local/cp2k-6.1/data/GTH_POTENTIALS
            BASIS_SET_FILE_NAME /usr/local/cp2k-6.1/data/BASIS_ADMM_MOLOPT
            BASIS_SET_FILE_NAME /usr/local/cp2k-6.1/data/BASIS_ADMM
#Restart from GGA wf
            WFN_RESTART_FILE_NAME el-RESTART.wfn
#Activate for charged system
!            UKS
!            CHARGE -1
    &MGRID
      CUTOFF 600
    &END MGRID
    &QS
      METHOD GPW
    &END QS
    &SCF
      SCF_GUESS  RESTART
      MAX_SCF    100
      &OT
        MINIMIZER       CG
        PRECONDITIONER  FULL_SINGLE_INVERSE
      &END
      &OUTER_SCF
        EPS_SCF  1.0E-7
        MAX_SCF  50
      &END
    &END SCF
    &AUXILIARY_DENSITY_MATRIX_METHOD
        METHOD BASIS_PROJECTION
        ADMM_PURIFICATION_METHOD MO_DIAG
     &END AUXILIARY_DENSITY_MATRIX_METHOD
    &PRINT
    &END PRINT
#These are the coefficients used for PBE0
&XC
 &XC_FUNCTIONAL
  &PBE
   SCALE_X 0.63
   SCALE_C 1.0
 &END PBE
 &PBE_HOLE_T_C_LR
 CUTOFF_RADIUS 6.0
 SCALE_X 0.37
 &END PBE_HOLE_T_C_LR
&END XC_FUNCTIONAL
&HF
&SCREENING
EPS_SCHWARZ 1.0E-6
SCREEN_ON_INITIAL_P FALSE
&END SCREENING
&INTERACTION_POTENTIAL
POTENTIAL_TYPE TRUNCATED
CUTOFF_RADIUS 6.0
T_C_G_DATA /usr/local/cp2k-6.1/data/t_c_g.dat
&END INTERACTION_POTENTIAL
&MEMORY
MAX_MEMORY 3600
EPS_STORAGE_SCALING 0.1
&END MEMORY
FRACTION 0.37
&END HF
      ! non-local vdW part
      &vdW_POTENTIAL
         DISPERSION_FUNCTIONAL NON_LOCAL
         &NON_LOCAL
           TYPE RVV10
           PARAMETERS  6.3  0.0093
           KERNEL_FILE_NAME   /usr/local/cp2k-6.1/data/rVV10_kernel_table.dat
           CUTOFF      400
         &END NON_LOCAL
      &END vdW_POTENTIAL
    &END XC
  &END DFT
  &SUBSYS
    &CELL
A 16.51200   0.00000   0.00000
B  0.00000  17.94900   0.00000
C -9.38272   0.00000  14.59883
  &END CELL
    &COORD
  C        -0.8576424599        0.0974877593        2.3658537793
  C        -0.0971818467        0.9443784484        1.6032141901
  C         0.2319578994        0.6144630672        0.2689291606
  C        -3.6775480310        1.4701899750        6.7592167239
  C        -3.3684445012        1.1209782787        5.4705311333
  H        -1.1005482643        0.3678453889        3.3860105221
  H         0.2606028829        1.8835265067        2.0062102668
  H        -3.3229493129        2.4051039824        7.1760176161
  H        -2.7594305108        1.7833373229        4.8666332241
  C         0.2975636635        3.0877565863        4.9345328796
  C         4.4277422728        5.8860076030        4.9357118012
  C         3.2682899486        2.8927384834        2.3647812161
  C        -0.4634603810        3.9348558468        5.6963879638
  C         3.6653141677        5.0391900268        5.6964554689
  C         4.0312900303        2.0468692066        1.6036022073
  C        -0.7937225287        3.6051280563        7.0304424641
  C         3.3332651703        5.3690205844        7.0300131030
  C         4.3620093250        2.3768171078        0.2697353052
  C         3.1134537582        4.4599916676        0.5387097579
  C         7.2393810970        4.5143248177        0.5373638989
  C         0.4532867702        1.5209977888        6.7609515695
  C         2.8018935178        4.1102605319        1.8266621112
  C         6.9267724192        4.8638701103        1.8251009836
  C         0.7629810422        1.8696562513        5.4722803936
  H         0.5406422385        3.3573672041        3.9142302566
  H         4.6719228359        5.6162549384        3.9157135580
  H         3.0243212836        2.6225452054        3.3847114818
  H        -0.8212691844        4.8737160706        5.2926735719
  H         3.3075282551        4.1005738274        5.2921645630
  H         4.3900240324        1.1084568878        2.0074968183
  H         2.7582648227        5.3943310875        0.1211134679
  H         6.8847199918        3.5799616112        0.1194149853
  H         0.8078745566        0.5864142460        7.1784176221
  H         2.1905249376        4.7717448802        2.4291424146
  H         6.3147089971        4.2024189524        2.4269307542
  H         1.3721726258        1.2069406197        4.8689180948
  C        -5.5490208435        0.0975961763        9.6652178876
  C        -4.7885135210        0.9445001038        8.9026355047
  C        -4.4595172116        0.6145516476        7.5683238787
  C        -8.3688523224        1.4701176631       14.0586228969
  C        -8.0597642303        1.1208989575       12.7699355573
  H        -5.7919272143        0.3679001034       10.6853876872
  H        -4.4307782046        1.8836840220        9.3055837404
  H        -8.0142675700        2.4049597986       14.4755837141
  H        -7.4507268626        1.7833361689       12.1661460440
  C        -4.3938575092        3.0877769847       12.2339531390
  C        -0.2635268409        5.8859037112       12.2352003969
  C        -1.4231030712        2.8926613567        9.6641504109
  C        -5.1546943528        3.9350209671       12.9958386202
  C        -1.0261055871        5.0391280479       12.9958442870
  C        -0.6600189372        2.0467922375        8.9030498037
  C        -5.4852839104        3.6050261198       14.3297469929
  C        -1.3579050817        5.3689359141       14.3294663077
  C        -0.3295737594        2.3766895419        7.5691020020
  C        -1.5780856899        4.4598800205        7.8380857167
  C         2.5479776165        4.5143444040        7.8368008650
  C        -4.2380546442        1.5210101142       14.0603534996
  C        -1.8894225241        4.1102635701        9.1261211036
  C         2.2353236114        4.8639293472        9.1245175310
  C        -3.9283111494        1.8697191897       12.7717080960
  H        -4.1506873349        3.3573969781       11.2136748858
  H        -0.0193870650        5.6162254695       11.2151738670
  H        -1.6670363639        2.6225145904       10.6841018855
  H        -5.5125783781        4.8738522904       12.5921351445
  H        -1.3838467335        4.1004771984       12.5916040208
  H        -0.3013719258        1.1083104902        9.3068557185
  H        -1.9331538273        5.3942167061        7.4203928536
  H         2.1933577275        3.5800388330        7.4186997204
  H        -3.8834182935        0.5865300471       14.4779940109
  H        -2.5008821896        4.7717766952        9.7284779998
  H         1.6232564506        4.2023828012        9.7262404554
  H        -3.3191323612        1.2069114020       12.1684338668
  C        -0.8575417592        6.0809585940        2.3659242003
  C        -0.0962645755        6.9272967408        1.6035279560
  C         0.2328525818        6.5973829055        0.2692318130
  C        -3.6770032766        7.4533517176        6.7594811166
  C        -3.3683838419        7.1045907600        5.4705715193
  H        -1.1004555470        6.3511082420        3.3861232544
  H         0.2623404425        7.8660653237        2.0067216757
  H        -3.3220910913        8.3880165736        7.1765345785
  H        -2.7598690009        7.7673399534        4.8665763459
  C         0.2978360855        9.0715936861        4.9346597751
  C         4.4279161156       11.8676528623        4.9357209472
  C         3.2682247348        8.8761594049        2.3646946140
  C        -0.4633926546        9.9184742436        5.6965297313
  C         3.6643181316       11.0216613577        5.6961414450
  C         4.0302616325        8.0296861660        1.6031831128
  C        -0.7939907906        9.5884407955        7.0304117457
  C         3.3322170019       11.3516131615        7.0296426898
  C         4.3611432743        8.3597369193        0.2693835667
  C         3.1140979099       10.4438787900        0.5390077215
  C         7.2395300995       10.4961210524        0.5373412787
  C         0.4526461351        7.5041152400        6.7605911762
  C         2.8027683088       10.0942607278        1.8270433684
  C         6.9275221513       10.8451528046        1.8253470475
  C         0.7629798134        7.8533174930        5.4722052707
  H         0.5413929452        9.3417749395        3.9146107412
  H         4.6725553147       11.5975888583        3.9159177613
  H         3.0242298625        8.6056979479        3.3845590754
  H        -0.8209901051       10.8574757544        5.2930006443
  H         3.3059203811       10.0833013094        5.2918087576
  H         4.3881793592        7.0908776539        2.0068404819
  H         2.7595312167       11.3785452818        0.1216103762
  H         6.8851670990        9.5616975627        0.1193185772
  H         0.8069918274        6.5693181815        7.1778204024
  H         2.1923016232       10.7561886224        2.4299402355
  H         6.3169577288       10.1828028887        2.4277193582
  H         1.3726824322        7.1910091677        4.8689333933
  C        -5.5489000119        6.0810278802        9.6652944670
  C        -4.7876259785        6.9274168691        8.9029484832
  C        -4.4585827925        6.5974307208        7.5686539256
  C        -8.3683059550        7.4533058194       14.0588843143
  C        -8.0597152895        7.1045255090       12.7699728677
  H        -5.7918297117        6.3511416675       10.6854973480
  H        -4.4290406138        7.8662086162        9.3060960198
  H        -8.0134219483        8.3879076389       14.4760939332
  H        -7.4511907517        7.7673634790       12.1660839471
  C        -4.3935265503        9.0716756098       12.2341159220
  C        -0.2634836361       11.8676189301       12.2351683471
  C        -1.4231310752        8.8760628128        9.6640653581
  C        -5.1547337617        9.9186113263       12.9959503615
  C        -1.0269532530       11.0215082691       12.9955896440
  C        -0.6610802321        8.0295544644        8.9026009424
  C        -5.4853336718        9.5884589842       14.3298012049
  C        -1.3591899011       11.3516695079       14.3290068084
  C        -0.3303210146        8.3596705884        7.5687889566
  C        -1.5773328700       10.4438084337        7.8384416503
  C         2.5480112316       10.4961979321        7.8367403985
  C        -4.2386480638        7.5041754730       14.0599962938
  C        -1.8886241658       10.0941915445        9.1264867677
  C         2.2361683102       10.8451569894        9.1248045363
  C        -3.9282954711        7.8534075101       12.7716225488
  H        -4.1499287049        9.3418192642       11.2140675595
  H        -0.0187827171       11.5975786801       11.2153741874
  H        -1.6671319108        8.6056471180       10.6839416797
  H        -5.5123515357       10.8576065888       12.5924353183
  H        -1.3853564988       10.0831446278       12.5912779734
  H        -0.3031856570        7.0907240817        9.3062197822
  H        -1.9318326069       11.3784308262        7.4209009819
  H         2.1937197158        9.5618188865        7.4185690420
  H        -3.8843247056        6.5694496513       14.4773955319
  H        -2.4991095577       10.7562045122        9.7292734360
  H         1.6255419487       10.1827431225        9.7270459855
  H        -3.3185776684        7.1910049944       12.1684674733
  C        -0.8574059796       12.0627069111        2.3660026326
  C        -0.0971138932       12.9097843144        1.6033747659
  C         0.2319158492       12.5800342404        0.2690057537
  C        -3.6769003826       13.4352745047        6.7595302910
  C        -3.3675057889       13.0858824992        5.4709590970
  H        -1.0998456804       12.3325156465        3.3864064831
  H         0.2608899942       13.8487875098        2.0065589869
  H        -3.3215797832       14.3698314571        7.1765122695
  H        -2.7576446077       13.7477953579        4.8674157975
  C         0.2976379576       15.0550463701        4.9345647687
  C         4.4280229795       17.8510695997        4.9358430974
  C         3.2683981023       14.8600218246        2.3648267320
  C        -0.4642213422       15.9014892349        5.6962426868
  C         3.6653167562       17.0045169774        5.6965782839
  C         4.0303297304       14.0133748229        1.6033733949
  C        -0.7949052895       15.5713870051        7.0300918803
  C         3.3329750780       17.3346652546        7.0299702134
  C         4.3609381391       14.3431181410        0.2694207325
  C         3.1136146339       16.4271478079        0.5387201776
  C         7.2400980419       16.4793443038        0.5377295474
  C         0.4533471534       13.4881038548        6.7609220877
  C         2.8027541932       16.0779821534        1.8269788030
  C         6.9274552664       16.8289378974        1.8254452418
  C         0.7637449009       13.8373505835        5.4725615278
  H         0.5412743214       15.3250217284        3.9144925941
  H         4.6726748090       17.5807469207        3.9160988058
  H         3.0248956638       14.5901036817        3.3849435941
  H        -0.8225965551       16.8401147820        5.2924925303
  H         3.3076745420       16.0657938400        5.2924549746
  H         4.3884439689       13.0746929848        2.0071939943
  H         2.7587888741       17.3615970436        0.1210958364
  H         6.8859957659       15.5447033699        0.1199264557
  H         0.8083125886       12.5536220592        7.1783364316
  H         2.1928169626       16.7403159617        2.4299873309
  H         6.3163495643       16.1669937066        2.4276959080
  H         1.3743471776       13.1754886599        4.8696968385
  C        -5.5487695172       12.0627833625        9.6653685685
  C        -4.7884703754       12.9099083119        8.9027947762
  C        -4.4594780043       12.5800576310        7.5684428435
  C        -8.3681858271       13.4352204066       14.0589413434
  C        -8.0588362912       13.0858225703       12.7703607239
  H        -5.7912235378       12.3325560955       10.6857779766
  H        -4.4304687549       13.8489247275        9.3059420924
  H        -8.0129283565       14.3697306647       14.4760707739
  H        -7.4489436368       13.7478160129       12.1669368028
  C        -4.3936920049       15.0551148783       12.2340312459
  C        -0.2633639634       17.8510234462       12.2352682029
  C        -1.4229861607       14.8599272488        9.6641946837
  C        -5.1555668083       15.9016008262       12.9956512649
  C        -1.0259886049       17.0043884661       12.9959980817
  C        -0.6609887761       14.0132813442        8.9027987855
  C        -5.4862436739       15.5713879311       14.3294733083
  C        -1.3583579223       17.3346299754       14.3293613405
  C        -0.3305489583       14.3430517084        7.5688122097
  C        -1.5778163186       16.4271035219        7.8381554739
  C         2.5486327483       16.4794184113        7.8371248216
  C        -4.2379604118       13.4881437265       14.0603291308
  C        -1.8886232594       16.0779339059        9.1264259608
  C         2.2360653775       16.8289833124        9.1248653758
  C        -3.9275253648       13.8374143199       12.7719840369
  H        -4.1500324113       15.3250536100       11.2139556274
  H        -0.0186761399       17.5807118757       11.2155297151
  H        -1.6664778507       14.5900600934       10.6843295571
  H        -5.5139666632       16.8402233863       12.5919252011
  H        -1.3836176969       16.0656408573       12.5919288920
  H        -0.3029089882       13.0745678177        9.3065725349
  H        -1.9325563448       17.3615213958        7.4204006032
  H         2.1945253847       15.5448490236        7.4191761247
  H        -3.8830235582       12.5537290105       14.4779006443
  H        -2.4985835575       16.7403476086        9.7293261605
  H         1.6249275910       16.1669793805        9.7270191522
  H        -3.3169057503       13.1754680922       12.1692291335
  C         7.3926109688        0.0979648499        2.3635349163
  C         8.1553780977        0.9444845010        1.6028246722
  C         8.4875912484        0.6143283730        0.2694032548
  C         4.5805231765        1.4696654724        6.7617220402
  C         4.8931588061        1.1200732232        5.4740037428
  H         7.1479529980        0.3682370015        3.3832904698
  H         8.5129917122        1.8832010974        2.0069898076
  H         4.9346662509        2.4043085802        7.1794875415
  H         5.5042570920        1.7819882418        4.8717152648
  C         8.5522324072        3.0889831388        4.9345928049
  C        12.6780554415        5.8862754101        4.9334454273
  C        11.5229467006        2.8939256972        2.3648300382
  C         7.7902838133        3.9356210206        5.6960402550
  C        11.9177089858        5.0392150845        5.6960398422
  C        12.2848960371        2.0475332489        1.6031852218
  C         7.4597462361        3.6058911588        7.0300145647
  C        11.5888268551        5.3689415240        7.0304504791
  C        12.6155288474        2.3776077927        0.2693193100
  C        11.3673619539        4.4609343967        0.5385185140
  C        15.4975024308        4.5137359396        0.5398488049
  C         8.7070415673        1.5218633627        6.7606867731
  C        11.0568318207        4.1116129206        1.8268282088
  C        15.1881988810        4.8630946423        1.8284518314
  C         9.0178781168        1.8710136606        5.4724193622
  H         8.7957346453        3.3588888075        3.9144725165
  H        12.9204931391        5.6164974832        3.9130335899
  H        11.2793311951        2.6239606436        3.3849092115
  H         7.4321902720        4.8743099621        5.2922147666
  H        11.5597289577        4.1002111541        5.2928332376
  H        12.6433083382        1.1089261709        2.0069451411
  H        11.0123894541        5.3954110111        0.1211032266
  H        15.1421980107        3.5791554149        0.1229020752
  H         9.0618461487        0.5874089902        7.1783161509
  H        10.4462579199        4.7734904072        2.4297033269
  H        14.5782980501        4.2012210093        2.4319969804
  H         9.6278213392        1.2086762265        4.8694210370
  C         2.7012947349        0.0979996110        9.6629426927
  C         3.4639312738        0.9446384389        8.9022278795
  C         3.7962703548        0.6143253648        7.5688743179
  C        -0.1106940574        1.4695764139       14.0611703537
  C         0.2018051169        1.1200351083       12.7734070290
  H         2.4565872231        0.3682735259       10.6826863639
  H         3.8215653811        1.8833637245        9.3063475077
  H         0.2434229373        2.4041614089       14.4790728600
  H         0.8129588545        1.7819987757       12.1712266093
  C         3.8608219629        3.0890307380       12.2340201539
  C         7.9866651868        5.8862057931       12.2328885664
  C         6.8315860965        2.8938788621        9.6642108035
  C         3.0989943514        3.9357720325       12.9954778297
  C         7.2263697464        5.0390828423       12.9954678950
  C         7.5935148971        2.0474223102        8.9026128482
  C         2.7683391953        3.6058797253       14.3293831141
  C         6.8974643122        5.3689302330       14.3298417011
  C         7.9241191249        2.3775726591        7.5687583637
  C         6.6758537765        4.4608404263        7.8378948412
  C        10.8060582046        4.5138074052        7.8392569908
  C         4.0157513117        1.5219104543       14.0600939936
  C         6.3654671773        4.1115974850        9.1262595093
  C        10.4968106037        4.8631426958        9.1278787152
  C         4.3265053441        1.8710456585       12.7718032620
  H         4.1043662529        3.3589263292       11.2139064800
  H         8.2291381414        5.6164569083       11.2124777888
  H         6.5879557536        2.6239438311       10.6842936756
  H         2.7409043642        4.8744773917       12.5916983017
  H         6.8683844708        4.1000718229       12.5922936439
  H         7.9518983620        1.1087845669        9.3063172620
  H         6.3209291743        5.3952703703        7.4203428591
  H        10.4508101004        3.5792746709        7.4221694629
  H         4.3705333623        0.5875164281       14.4778664958
  H         5.7548293150        4.7735268325        9.7290150968
  H         9.8868797676        4.2011944531        9.7313121003
  H         4.9364623852        1.2086321805       12.1689006808
  C         7.3927294028        6.0813677411        2.3636698130
  C         8.1563628031        6.9273413146        1.6032647850
  C         8.4883361026        6.5974013048        0.2697262165
  C         4.5811658307        7.4528582109        6.7621193966
  C         4.8930642969        7.1038711395        5.4740766659
  H         7.1481016609        6.3513885145        3.3834867039
  H         8.5146848534        7.8657293574        2.0076029462
  H         4.9355179653        8.3872988719        7.1801136348
  H         5.5036540580        7.7661884679        4.8716959392
  C         8.5524147733        9.0728314248        4.9347169148
  C        12.6781393503       11.8680492538        4.9335011081
  C        11.5227896312        8.8773983598        2.3647564763
  C         7.7903919482        9.9193181021        5.6962261166
  C        11.9169207016       11.0216682691        5.6959085298
  C        12.2840521481        8.0305438179        1.6028892701
  C         7.4594522030        9.5892462400        7.0300044269
  C        11.5877654426       11.3516583252        7.0301764122
  C        12.6145748508        8.3605294237        0.2689765511
  C        11.3680161989       10.4449080612        0.5388368040
  C        15.4976381465       10.4956402011        0.5399108100
  C         8.7065258120        7.5051197204        6.7604135813
  C        11.0576165753       10.0956547376        1.8271936136
  C        15.1890577735       10.8444023284        1.8288302556
  C         9.0178686843        7.8547345274        5.4723794670
  H         8.7964071509        9.3433070710        3.9148558129
  H        12.9210910723       11.5979050785        3.9133111117
  H        11.2792393874        8.6072259628        3.3848089652
  H         7.4324618203       10.8581260149        5.2925807350
  H        11.5582954433       10.0829221597        5.2926798389
  H        12.6416666146        7.0915537081        2.0064306657
  H        11.0136731539       11.3797031133        0.1215996101
  H        15.1426905460        9.5609794672        0.1228732741
  H         9.0611092467        6.5704532600        7.1777992031
  H        10.4479413914       10.7579837948        2.4304699705
  H        14.5805350254       10.1816759915        2.4328407918
  H         9.6283349330        7.1928162620        4.8694708979
  C         2.7013117308        6.0814502384        9.6630228788
  C         3.4649954111        6.9274420010        8.9026827795
  C         3.7969351290        6.5974037910        7.5691631723
  C        -0.1100912206        7.4528072755       14.0615321501
  C         0.2017423831        7.1038367237       12.7734680882
  H         2.4566809360        6.3514200233       10.6828529632
  H         3.8233362077        7.8658287383        9.3069984844
  H         0.2441562750        8.3872262489       14.4796530226
  H         0.8123716508        7.7662294588       12.1712080246
  C         3.8610419187        9.0729369579       12.2341740682
  C         7.9867943852       11.8679598758       12.2329637825
  C         6.8314652122        8.8773318296        9.6641266790
  C         3.0990064174        9.9194459493       12.9956511746
  C         7.2255452212       11.0215593651       12.9953241061
  C         7.5926400402        8.0303680410        8.9022891625
  C         2.7682064306        9.5893178330       14.3294513501
  C         6.8964760818       11.3516090830       14.3295970699
  C         7.9232803854        8.3605699206        7.5684598003
  C         6.6765855113       10.4448244199        7.8382624525
  C        10.8062263306       10.4956959390        7.8393337157
  C         4.0152992875        7.5052125694       14.0598209711
  C         6.3661864531       10.0955836978        9.1266219586
  C        10.4976600211       10.8444569848        9.1282571497
  C         4.3264886645        7.8547839008       12.7717391727
  H         4.1050437335        9.3433483307       11.2142971752
  H         8.2297584232       11.5978653775       11.2127634480
  H         6.5878509802        8.6071838561       10.6841703478
  H         2.7411389054       10.8582905675       12.5920415196
  H         6.8669409346       10.0827942497       12.5921294283
  H         7.9502790419        7.0913865257        9.3058196329
  H         6.3222431666       11.3795344343        7.4208492515
  H        10.4513221647        9.5610894851        7.4221522471
  H         4.3697884966        6.5705838321       14.4773598768
  H         5.7564821251       10.7579953351        9.7297810608
  H         9.8891194362       10.1816500030        9.7321631302
  H         4.9370121249        7.1927903816       12.1689702899
  C         7.3928640200       12.0630254838        2.3636688328
  C         8.1553510434       12.9098204066        1.6029579273
  C         8.4874107730       12.5799328133        0.2694184624
  C         4.5811525999       13.4347326188        6.7620438265
  C         4.8939220739       13.0850949425        5.4743687866
  H         7.1486911327       12.3327482386        3.3836762984
  H         8.5131694509       13.8484092736        2.0072854169
  H         4.9358714619       14.3690809132        7.1799787692
  H         5.5059234862       13.7465608726        4.8724920534
  C         8.5523052100       15.0562432831        4.9346244500
  C        12.6782986922       17.8514801199        4.9335977259
  C        11.5230593438       14.8612383111        2.3648813298
  C         7.7893515975       15.9021387740        5.6958207508
  C        11.9177682804       17.0046267083        5.6962087516
  C        12.2840831734       14.0141406020        1.6030249701
  C         7.4586840319       15.5722016431        7.0297059659
  C        11.5887722305       17.3345225385        7.0305347668
  C        12.6144437098       14.3439107287        0.2690061122
  C        11.3673899334       16.4280222555        0.5384705937
  C        15.4982506384       16.4787749945        0.5401914334
  C         8.7072668221       13.4890536192        6.7607252597
  C        11.0576475184       16.0793354781        1.8271240632
  C        15.1890472617       16.8280467235        1.8288381981
  C         9.0186927482       13.8387047887        5.4727212412
  H         8.7962886198       15.3264369079        3.9146981050
  H        12.9211848564       17.5811733928        3.9134232855
  H        11.2799765295       14.5916178516        3.3851801634
  H         7.4306659049       16.8405744666        5.2919357717
  H        11.5600486216       16.0654585176        5.2931984945
  H        12.6419230891       13.0752927034        2.0067407066
  H        11.0127715393       17.3625942610        0.1210043932
  H        15.1435914311       15.5438765900        0.1234051420
  H         9.0624277300       12.5547027164        7.1783202459
  H        10.4484661704       16.7420500608        2.4304975926
  H        14.5800749809       16.1656884306        2.4327785512
  H         9.6300996615       13.1772385101        4.8702609897
  C         2.7015125540       12.0630785460        9.6630406660
  C         3.4639640729       12.9099371864        8.9023598332
  C         3.7959667600       12.5799501636        7.5688298248
  C        -0.1100992101       13.4346784023       14.0614574194
  C         0.2026051880       13.0850648279       12.7737609987
  H         2.4573162162       12.3327559741       10.6830555715
  H         3.8217257600       13.8485632330        9.3066443822
  H         0.2446046313       14.3689513594       14.4795606018
  H         0.8146373353       13.7466104016       12.1720000991
  C         3.8609498422       15.0563102278       12.2340725402
  C         7.9869145851       17.8513954979       12.2330487519
  C         6.8316723459       14.8611716187        9.6642609160
  C         3.0979907114       15.9022488623       12.9952208795
  C         7.2264489159       17.0044612877       12.9956393143
  C         7.5927156019       14.0140444805        8.9024511678
  C         2.7673827614       15.5722434048       14.3291019978
  C         6.8973541471       17.3345309145       14.3298977074
  C         7.9230252960       14.3438654143        7.5684334014
  C         6.6759542835       16.4279795503        7.8378774294
  C        10.8067660968       16.4788794848        7.8395920403
  C         4.0159618994       13.4891004035       14.0601339901
  C         6.3662351436       16.0792804193        9.1265327965
  C        10.4976877961       16.8281050099        9.1282803490
  C         4.3273716495       13.8387575976       12.7721271984
  H         4.1049345402       15.3264773048       11.2141387640
  H         8.2298447537       17.5811140471       11.2128779946